5 5
1 17 2 2 3 33 0 93 4 6
4 43 3 88 1 11 0 5 2 30
1 10 2 91 3 91 0 24 4 59
2 67 1 61 3 26 0 39 4 82
4 3 1 38 3 42 0 48 2 89
-1
0 3 5
0 2 4 5
0 1 2 4 5
0 3 4 5
0 3 5
-2
52 172
163 179 280
12 125 341 348
206 237 389
95 324

388 7
3 8 18 23 13
0 10 21 16 7
1 15 11 9 24
2 6 22 17 12
20 5 4 19 14
